c colouring generated by benchmark framework
p edge 128 5198
v 1 48
v 2 33
v 3 1
v 4 12
v 5 70
v 6 69
v 7 21
v 8 0
v 9 2
v 10 39
v 11 3
v 12 28
v 13 37
v 14 63
v 15 9
v 16 46
v 17 30
v 18 4
v 19 5
v 20 53
v 21 34
v 22 41
v 23 19
v 24 57
v 25 70
v 26 6
v 27 35
v 28 3
v 29 66
v 30 59
v 31 24
v 32 20
v 33 27
v 34 26
v 35 68
v 36 9
v 37 23
v 38 71
v 39 60
v 40 18
v 41 67
v 42 29
v 43 64
v 44 38
v 45 28
v 46 68
v 47 67
v 48 0
v 49 69
v 50 37
v 51 15
v 52 8
v 53 16
v 54 72
v 55 12
v 56 4
v 57 26
v 58 30
v 59 52
v 60 2
v 61 26
v 62 1
v 63 31
v 64 11
v 65 45
v 66 14
v 67 61
v 68 32
v 69 29
v 70 15
v 71 54
v 72 29
v 73 40
v 74 47
v 75 51
v 76 34
v 77 35
v 78 4
v 79 72
v 80 43
v 81 13
v 82 12
v 83 38
v 84 45
v 85 57
v 86 25
v 87 8
v 88 13
v 89 65
v 90 41
v 91 58
v 92 7
v 93 42
v 94 24
v 95 5
v 96 36
v 97 19
v 98 16
v 99 10
v 100 66
v 101 6
v 102 25
v 103 30
v 104 5
v 105 2
v 106 6
v 107 49
v 108 17
v 109 31
v 110 50
v 111 46
v 112 3
v 113 44
v 114 52
v 115 23
v 116 62
v 117 9
v 118 31
v 119 21
v 120 63
v 121 11
v 122 22
v 123 18
v 124 38
v 125 55
v 126 20
v 127 27
v 128 56
